s td 131 120 226
b 1 1 3 5 9 11 12 14 15 17 18 20 21 24 27 28 35 38 40 41 42 44 45 46 47 48 51 53 54 55 56 59 62 64 65 67 70 73 78 79 81 82 83 85 86 88 89 93 97 100 101 102 104 106 108 109 111 114 116 117 118 119 120 123 125 127 128 132 135 138 139 142 143 147 149 151 155 157 158 159 160 163 165 168 170 173 174 175 176 178 179 180 181 182 183 184 188 189 190 191 195 196 197 199 200 201 202 203 204 206 207 208 209 210 212 214 215 216 219 223 226
b 2 2 119 158
b 3 4 109 158
b 4 6 24 139
b 5 7 139 165
b 6 8 155 158
b 7 10 139 201
b 8 16 38 139
b 9 19 118 158
b 10 22 158 181
b 11 23 78 158
b 12 25 93 158
b 13 26 108 139
b 14 9 29 139
b 15 30 38 139
b 16 31 73 139
b 17 32 118 139
b 18 33 35 158
b 19 9 34 158
b 20 3 5 9 15 17 18 20 21 24 27 35 38 40 41 42 44 45 46 47 48 51 53 54 55 56 59 62 64 65 67 70 73 78 79 81 82 83 85 86 88 89 93 97 100 101 102 104 106 108 109 111 114 116 117 118 119 120 123 125 127 128 132 135 138 139 142 143 147 149 151 155 157 158 159 160 163 165 168 170 173 174 175 176 178 179 180 181 182 183 184 188 189 190 191 195 196 197 199 200 201 202 203 204 206 207 208 209 210 212 214 215 216 219 223 226
b 21 35 39 139
b 22 3 5 15 17 18 20 21 24 27 35 38 40 41 42 44 45 46 47 48 51 53 54 55 56 59 62 64 65 67 70 73 78 79 81 82 83 85 86 88 89 93 97 100 101 102 104 106 108 109 111 114 116 117 118 119 120 123 125 127 128 132 135 138 139 142 143 147 149 151 155 157 158 159 160 163 165 168 170 173 174 175 176 178 179 180 181 182 183 184 188 189 190 191 195 196 197 199 200 201 202 203 204 206 207 208 209 210 212 214 215 216 219 223 226
b 23 43 139 203
b 24 49 139 173
b 25 52 119 139
b 26 57 139 147
b 27 58 111 139
b 28 61 102 158
b 29 63 104 158
b 30 66 158 203
b 31 69 147 158
b 32 67 71 139
b 33 72 108 158
b 34 74 104 139
b 35 75 139 196
b 36 76 111 158
b 37 24 77 158
b 38 3 5 15 17 18 20 21 24 27 38 40 41 45 47 48 51 55 56 59 62 64 65 67 70 73 78 79 81 82 83 85 86 88 89 93 97 100 101 102 104 106 108 109 111 114 116 117 118 119 120 123 125 127 128 132 135 138 139 142 143 147 149 151 155 157 158 159 160 163 165 168 170 173 174 175 176 178 179 180 181 182 183 184 188 189 190 191 195 196 197 199 200 201 202 203 204 206 207 208 209 210 212 214 215 216 219 223 226
b 39 40 84 139
b 40 87 139 190
b 41 92 100 139
b 42 96 158 190
b 43 59 98 158
b 44 99 109 139
b 45 103 127 139
b 46 3 5 15 17 18 20 21 27 38 40 41 45 47 48 51 55 56 59 62 64 65 67 70 73 78 79 81 82 85 88 89 93 100 101 102 104 106 108 109 111 114 116 117 118 119 120 123 125 127 128 132 135 138 139 142 143 147 149 151 155 157 158 159 160 163 165 168 170 173 174 175 176 178 179 180 181 182 183 184 188 189 190 191 195 196 197 199 200 201 202 203 204 206 207 208 209 210 212 214 215 216 219 223 226
b 47 105 158 206
b 48 107 158 196
b 49 3 5 15 17 18 20 21 27 38 40 41 45 47 48 51 55 56 59 62 64 65 67 70 73 78 79 81 82 85 88 89 93 100 101 102 106 108 109 111 114 116 117 118 119 120 123 125 127 128 132 135 138 139 142 143 147 149 151 155 157 158 159 160 163 165 168 170 173 174 175 176 178 179 180 181 182 183 184 188 189 190 191 195 196 197 199 200 201 202 203 204 206 207 208 209 210 212 214 215 216 219 223 226
b 50 110 139 175
b 51 3 5 15 17 18 20 21 27 38 40 41 45 47 48 51 55 56 59 62 64 65 67 70 73 78 79 81 82 85 88 89 93 100 101 102 106 109 111 114 116 117 118 119 120 123 125 127 128 132 135 138 139 142 143 147 149 151 155 157 158 159 160 163 165 168 170 173 174 175 176 178 179 180 181 182 183 184 188 189 190 191 195 196 197 199 200 201 202 203 204 206 207 208 209 210 212 214 215 216 219 223 226
b 52 48 112 139
b 53 113 158 201
b 54 114 115 158
b 55 3 5 15 17 18 20 21 27 38 40 41 45 47 48 51 55 56 59 62 64 65 67 70 73 78 79 81 82 85 88 89 93 100 101 102 106 109 114 118 119 120 123 125 127 128 132 135 138 139 142 143 147 149 151 155 157 158 159 160 163 165 168 170 173 174 175 176 178 179 180 181 182 183 184 188 189 190 191 195 196 197 199 200 201 202 203 204 206 207 208 209 210 212 214 215 216 219 223 226
b 56 3 5 15 17 18 20 21 27 38 40 41 45 47 48 51 55 56 59 62 64 65 67 70 73 78 79 81 82 85 88 89 93 100 101 102 106 109 114 119 120 123 125 127 128 132 135 138 139 142 143 147 149 151 155 157 158 159 160 163 165 168 170 173 174 175 176 178 179 180 181 182 183 184 188 189 190 191 195 196 197 199 200 201 202 203 204 206 207 208 209 210 212 214 215 216 219 223 226
b 57 122 139 189
b 58 17 124 158
b 59 56 126 158
b 60 127 129 158
b 61 3 5 15 17 18 20 21 27 38 40 41 45 47 48 51 55 56 59 62 64 65 67 70 73 78 79 81 82 85 88 89 93 100 101 102 106 109 114 127 128 132 135 138 139 142 143 147 149 151 155 157 158 159 160 163 165 168 170 173 174 175 176 178 179 180 181 182 183 184 188 189 190 191 195 196 197 199 200 201 202 203 204 206 207 208 209 210 212 214 215 216 219 223 226
b 62 78 130 139
b 63 3 5 15 17 18 20 21 27 38 40 41 45 47 48 51 55 56 59 62 64 65 67 70 73 78 79 81 82 85 88 89 93 100 101 102 106 109 114 128 132 135 138 139 142 143 147 149 151 155 157 158 159 160 163 165 168 170 173 174 175 176 178 179 180 181 182 183 184 188 189 190 191 195 196 197 199 200 201 202 203 204 206 207 208 209 210 212 214 215 216 219 223 226
b 64 93 131 139
b 65 3 5 15 17 18 20 21 27 38 40 41 45 47 48 51 55 56 59 62 64 65 67 70 73 79 81 82 85 88 89 93 100 101 102 106 109 114 128 132 135 138 139 142 143 147 149 151 155 157 158 159 160 163 165 168 170 173 174 175 176 178 179 180 181 182 183 184 188 189 190 191 195 196 197 199 200 201 202 203 204 206 207 208 209 210 212 214 215 216 219 223 226
b 66 109 133 139
b 67 3 5 15 17 18 20 21 27 38 40 41 45 47 48 51 55 56 59 62 64 65 67 70 73 79 81 82 85 88 89 100 101 102 106 109 114 128 135 138 139 142 143 147 149 151 155 157 158 159 160 163 165 168 170 173 174 175 176 178 179 180 181 182 183 184 188 189 190 191 195 196 197 199 200 201 202 203 204 206 207 208 209 210 212 214 215 216 219 223 226
b 68 21 137 158
b 69 21 139 140
b 70 3 5 15 17 18 20 21 27 38 40 41 45 47 48 51 55 56 59 62 64 65 67 70 73 79 81 82 85 88 89 100 101 102 106 114 128 138 139 142 143 147 149 151 155 157 158 159 160 163 165 168 170 173 174 175 176 178 179 180 181 182 183 184 188 189 190 191 195 196 197 199 200 201 202 203 204 206 207 208 209 210 212 214 215 216 219 223 226
b 71 47 141 158
b 72 38 144 158
b 73 3 5 15 17 18 20 27 38 40 41 45 47 48 51 55 56 59 62 64 65 67 70 73 79 81 82 85 88 89 100 101 102 106 114 128 138 139 143 147 149 151 155 157 158 159 160 163 165 168 170 173 174 175 176 178 179 180 181 182 183 184 188 189 190 191 195 196 197 199 200 201 202 203 204 206 207 208 209 210 212 214 215 216 219 223 226
b 74 100 145 158
b 75 3 5 15 17 18 20 27 40 41 45 47 48 51 55 56 59 62 64 65 67 70 73 79 81 82 85 88 89 100 101 102 106 114 128 138 139 143 147 149 151 155 157 158 159 160 163 165 168 170 173 174 175 176 178 179 180 181 182 183 184 188 189 190 191 195 196 197 199 200 201 202 203 204 206 207 208 209 210 212 214 215 216 219 223 226
b 76 146 158 189
b 77 3 5 15 17 18 20 27 40 41 45 47 48 51 55 56 59 62 64 65 67 70 73 79 81 82 85 88 89 101 102 106 114 128 138 139 143 147 149 151 155 157 158 159 160 163 165 168 170 173 174 175 176 178 179 180 181 182 183 184 188 189 190 191 195 196 197 199 200 201 202 203 204 206 207 208 209 210 212 214 215 216 219 223 226
b 78 59 139 148
b 79 3 5 15 17 18 20 27 40 41 45 47 48 51 55 56 59 62 64 65 67 70 73 79 81 82 85 88 89 101 102 106 114 128 138 139 143 149 151 155 157 158 159 160 163 165 168 170 173 174 175 176 178 179 180 181 182 183 184 188 189 190 191 195 196 197 199 200 201 202 203 204 206 207 208 209 210 212 214 215 216 219 223 226
b 80 47 139 150
b 81 3 5 15 17 18 20 27 40 41 45 47 48 51 55 56 62 64 65 67 70 73 79 81 82 85 88 89 101 102 106 114 128 138 139 143 149 151 155 157 158 159 160 163 165 168 170 173 174 175 176 178 179 180 181 182 183 184 188 189 190 191 195 196 197 199 200 201 202 203 204 206 207 208 209 210 212 214 215 216 219 223 226
b 82 40 152 158
b 83 67 154 158
b 84 3 5 15 17 18 20 27 40 41 45 48 51 55 56 62 64 65 67 70 73 79 81 82 85 88 89 101 102 106 114 128 138 139 143 149 155 157 158 159 160 163 165 168 170 173 174 175 176 178 179 180 181 182 183 184 188 189 190 191 195 196 197 199 200 201 202 203 204 206 207 208 209 210 212 214 215 216 219 223 226
b 85 56 139 156
b 86 3 5 15 17 18 20 27 40 41 45 48 51 55 56 62 64 65 70 73 79 81 82 85 88 89 101 102 106 114 128 138 139 143 149 155 157 158 159 160 163 165 168 170 173 174 175 176 178 179 180 181 182 183 184 188 189 190 191 195 196 197 199 200 201 202 203 204 206 207 208 209 210 212 214 215 216 219 223 226
b 87 139 164 181
b 88 158 165 166
b 89 3 5 15 17 18 20 27 40 41 45 48 51 55 62 64 65 70 73 79 81 82 85 88 89 101 102 106 114 128 138 139 143 149 155 157 158 160 163 165 168 170 173 174 175 176 178 179 180 181 182 183 184 188 189 190 191 195 196 197 199 200 201 202 203 204 206 207 208 209 210 212 214 215 216 219 223 226
b 90 17 139 167
b 91 3 5 15 17 18 20 27 40 41 45 48 51 55 62 64 65 70 73 79 81 82 85 88 89 101 102 106 114 128 138 139 143 149 155 157 158 160 163 168 170 173 174 175 176 178 179 180 181 182 183 184 188 189 190 191 195 196 197 199 200 201 202 203 204 206 207 208 209 210 212 214 215 216 219 223 226
b 92 139 171 206
b 93 158 172 175
b 94 3 5 15 18 20 27 40 41 45 48 51 55 62 64 65 70 73 79 81 82 85 88 89 101 102 106 114 128 138 139 143 149 155 157 158 160 163 170 173 175 176 178 179 180 181 182 183 184 188 189 190 191 195 196 197 199 200 201 202 203 204 206 207 208 209 210 212 214 215 216 219 223 226
b 95 3 5 15 18 20 27 40 41 45 48 51 55 62 64 65 70 73 79 81 82 85 88 89 101 102 106 114 128 138 139 143 149 155 157 158 160 163 170 173 176 179 181 182 183 184 188 189 190 191 195 196 197 199 200 201 202 203 204 206 207 208 209 210 212 214 215 216 219 223 226
b 96 158 173 185
b 97 3 5 15 18 20 27 40 41 45 48 51 55 62 64 65 70 73 79 81 82 85 88 89 101 102 106 114 128 138 139 143 149 155 157 158 160 163 170 173 176 179 184 188 189 190 191 195 196 197 199 200 201 202 203 204 206 207 208 209 210 212 214 215 216 219 223 226
b 98 158 186 203
b 99 27 139 187
b 100 3 5 15 18 20 27 40 41 45 48 51 55 62 64 65 70 73 79 81 82 85 88 89 101 102 106 114 128 138 139 143 149 155 157 158 160 163 170 176 179 184 189 190 191 195 196 197 199 200 201 202 203 204 206 207 208 209 210 212 214 215 216 219 223 226
b 101 3 5 15 18 20 27 40 41 45 48 51 55 62 64 65 70 73 79 81 82 85 88 89 101 102 106 114 128 138 139 143 149 155 157 158 160 163 170 176 179 184 190 191 195 196 197 199 200 201 202 203 204 206 207 208 209 210 212 214 215 216 219 223 226
b 102 102 139 192
b 103 3 5 15 18 20 27 40 41 45 48 51 55 62 64 65 70 73 79 81 82 85 88 89 101 102 106 114 128 138 139 143 149 155 157 158 160 163 170 176 179 184 191 195 196 197 199 200 201 202 203 204 206 207 208 209 210 212 214 215 216 219 223 226
b 104 48 158 193
b 105 3 5 15 18 20 27 40 41 45 48 51 55 62 64 65 70 73 79 81 82 85 88 89 101 106 114 128 138 139 143 149 155 157 158 160 163 170 176 179 184 191 195 196 197 199 200 201 202 203 204 206 207 208 209 210 212 214 215 216 219 223 226
b 106 3 5 15 18 20 27 40 41 45 51 55 62 64 65 70 73 79 81 82 85 88 89 101 106 114 128 138 139 143 149 155 157 158 160 163 170 176 179 184 191 196 197 199 200 201 202 203 204 206 207 208 209 210 212 214 215 216 219 223 226
b 107 40 158 198
b 108 3 5 15 18 20 27 40 41 45 51 55 62 64 65 70 73 79 81 82 85 88 89 101 106 114 128 138 139 143 149 155 157 158 160 163 170 176 179 184 191 197 199 200 201 202 203 204 206 207 208 209 210 212 214 215 216 219 223 226
b 109 3 5 15 18 20 27 41 45 51 55 62 64 65 70 73 79 81 82 85 88 89 101 106 114 128 138 139 143 149 155 157 158 160 163 170 176 179 184 191 197 201 202 203 204 206 207 208 209 210 212 214 215 216 219 223 226
b 110 3 5 15 18 20 27 41 45 51 55 62 64 65 70 73 79 81 82 85 88 89 101 106 114 128 138 139 143 149 155 157 158 160 163 170 176 179 184 191 197 202 203 204 206 207 208 209 210 212 214 215 216 219 223 226
b 111 114 139 205
b 112 3 5 15 18 20 27 41 45 51 55 62 64 65 70 73 79 81 82 85 88 89 101 106 114 128 138 139 143 149 155 157 158 160 163 170 176 179 184 191 197 202 206 207 208 209 210 212 214 215 216 219 223 226
b 113 3 5 15 18 20 27 41 45 51 55 62 64 65 70 73 79 81 82 85 88 89 101 106 128 138 139 143 149 155 157 158 160 163 170 176 179 184 191 197 202 206 207 208 209 210 212 214 215 216 219 223 226
b 114 27 158 213
b 115 3 5 15 18 20 27 41 45 51 55 62 64 65 70 73 79 81 82 85 88 89 101 106 128 138 139 143 149 155 157 158 160 163 170 176 179 184 191 197 202 210 214 215 216 219 223 226
b 116 73 158 222
b 117 3 5 15 18 20 41 45 51 55 62 64 65 70 73 79 81 82 85 88 89 101 106 128 138 139 143 149 155 157 158 160 163 170 176 179 184 191 197 202 210 214 216 219 223 226
b 118 139 155 224
b 119 3 5 15 18 20 41 45 51 55 62 64 65 70 79 81 82 85 88 89 101 106 128 138 139 143 149 155 157 158 160 163 170 176 179 184 191 197 202 210 214 216 219 223 226
b 120 13 36 37 90 94 95 121 136 161 162 211 217
b 121 36 37 70 90 94 95 106 121 136 161 162 211 217
b 122 36 37 70 90 94 95 106 121 136 161 162 169 194 211
b 123 37 70 90 94 95 106 121 136 139 158 161 162 169 194 211
b 124 70 90 94 95 106 121 136 139 158 161 162 169 194 211 220 225
b 125 60 70 80 94 95 106 121 136 139 158 161 162 169 194 211 220 225
b 126 60 70 80 91 95 106 121 136 139 158 161 162 169 194 211 220 221 225
b 127 60 68 70 80 91 106 121 136 139 153 158 161 162 169 194 211 220 221 225
b 128 50 60 68 70 80 91 106 134 136 139 153 158 161 162 169 194 211 220 221 225
b 129 50 60 68 70 80 91 106 134 139 153 158 161 162 169 177 194 211 218 220 221 225
b 130 50 60 68 70 80 91 106 134 139 153 158 162 163 169 170 176 177 179 184 191 194 197 202 210 211 214 216 218 219 220 221 223 225
b 131 3 5 15 18 20 41 45 50 51 55 60 62 64 65 68 70 79 80 81 82 85 88 89 91 101 106 128 134 138 139 143 149 153 157 158 160 162 163 169 170 176 177 179 184 191 194 197 202 210 211 214 216 218 219 220 221 223 225
1 20
2 56
3 67
4 38
5 89
6 119
7 109
8 73
9 55
10 95
11 63
12 65
13 49
14 20
15 73
16 117
17 55
18 22
19 20
20 22
21 22
22 38
23 110
24 97
25 56
26 77
27 51
28 103
29 46
30 110
31 77
32 84
33 49
34 46
35 106
36 51
37 38
38 46
39 108
40 101
41 75
42 101
43 79
44 67
45 61
46 49
47 113
48 106
49 51
50 94
51 55
52 105
53 109
54 112
55 56
56 61
57 100
58 91
59 86
60 61
61 63
62 63
63 65
64 65
65 67
66 67
67 70
68 70
69 70
70 73
71 81
72 73
73 75
74 75
75 77
76 100
77 79
78 79
79 81
80 81
81 84
82 108
83 84
84 86
85 86
86 89
87 95
88 89
89 91
90 91
91 94
92 113
93 94
94 95
95 97
96 97
97 100
98 110
99 115
100 101
101 103
102 103
103 105
104 105
105 106
106 108
107 108
108 109
109 110
110 112
111 112
112 113
113 115
114 115
115 117
116 117
117 119
118 119
119 131
120 121
121 122
122 123
123 124
124 125
125 126
126 127
127 128
128 129
129 130
130 131
